This is Ipopt version 3.10.0, running with linear solver ma27.

Number of nonzeros in equality constraint Jacobian...:        0
Number of nonzeros in inequality constraint Jacobian.:       48
Number of nonzeros in Lagrangian Hessian.............:        0

Total number of variables............................:        6
                     variables with only lower bounds:        0
                variables with lower and upper bounds:        6
                     variables with only upper bounds:        0
Total number of equality constraints.................:        0
Total number of inequality constraints...............:        8
        inequality constraints with only lower bounds:        0
   inequality constraints with lower and upper bounds:        0
        inequality constraints with only upper bounds:        8

iter    objective    inf_pr   inf_du lg(mu)  ||d||  lg(rg) alpha_du alpha_pr  ls
   0  7.6568542e+00 3.06e+00 1.08e+00   0.0 0.00e+00    -  0.00e+00 0.00e+00   0
   1  1.0328191e+01 1.38e+00 5.92e+00  -0.6 1.96e+00    -  2.66e-01 9.66e-01h  1
   2  1.0202607e+01 1.11e+00 2.61e+00  -0.5 1.10e+00    -  8.11e-01 2.53e-01h  1
   3  1.1684663e+01 7.18e-01 5.42e+00  -0.5 8.93e-01    -  6.48e-01 4.90e-01h  1
   4  1.2422970e+01 6.34e-01 6.05e+00  -1.1 8.67e-01    -  8.64e-01 2.86e-01h  1
   5  1.4379894e+01 4.01e-01 5.50e+00  -1.3 1.43e+00    -  1.00e+00 5.98e-01h  1
   6  1.5311279e+01 3.36e-01 1.32e+01  -1.3 9.26e-01    -  9.98e-01 2.38e-01h  1
   7  1.8839614e+01 1.63e-01 1.99e+01  -1.3 1.86e+00    -  1.00e+00 7.04e-01h  1
   8  2.0344768e+01 9.92e-02 9.22e+00  -3.5 1.36e+00    -  7.78e-01 4.44e-01h  1
   9  2.3075216e+01 3.96e-03 1.75e+00  -2.0 9.87e-01    -  1.00e+00 1.00e+00h  1
iter    objective    inf_pr   inf_du lg(mu)  ||d||  lg(rg) alpha_du alpha_pr  ls
  10  2.3175394e+01 9.23e-04 1.57e-01  -3.6 4.79e-02    -  1.00e+00 1.00e+00h  1
  11  2.3198249e+01 4.62e-04 8.59e-02  -4.9 7.35e-03    -  1.00e+00 1.00e+00h  1
  12  2.3212397e+01 3.14e-05 8.14e-03  -5.8 5.63e-03    -  1.00e+00 9.97e-01h  1
  13  2.3213369e+01 4.04e-07 3.69e-03  -7.7 1.36e-03    -  1.00e+00 1.00e+00h  1
  14  2.3213382e+01 6.93e-09 1.66e-06  -9.7 1.06e-05    -  1.00e+00 1.00e+00h  1

Number of Iterations....: 14

                                   (scaled)                 (unscaled)
Objective...............:   2.3213381898416216e+01    2.3213381898416216e+01
Dual infeasibility......:   1.6611518631748368e-06    1.6611518631748368e-06
Constraint violation....:   6.9274467706759244e-09    6.9274467706759244e-09
Complementarity.........:   1.7849357436213626e-10    1.7849357436213626e-10
Overall NLP error.......:   1.6611518631748368e-06    1.6611518631748368e-06


Number of objective function evaluations             = 15
Number of objective gradient evaluations             = 15
Number of equality constraint evaluations            = 0
Number of inequality constraint evaluations          = 15
Number of equality constraint Jacobian evaluations   = 0
Number of inequality constraint Jacobian evaluations = 15
Number of Lagrangian Hessian evaluations             = 0
Total CPU secs in IPOPT (w/o function evaluations)   =      0.012
Total CPU secs in NLP function evaluations           =      0.001

EXIT: Stopping optimization at current point as requested by user.
